Na3 Au1 F6                              
   1.00000000000000     
     6.1005705785935112   -0.0000001630366680   -0.0000001152843330
     3.0502855056309106    5.2832490566697343   -0.0000000576421732
     3.0502855056309115    1.7610829645443489    4.9810949944963481
   Na   Au   F 
     3     1     6
Direct
  0.2500000000000000  0.2500000000000000  0.2500000000000000
  0.7500000000000000  0.7500000000000000  0.7500000000000000
  0.5000000000000000  0.5000000000000000  0.5000000000000000
  0.0000000000000000  0.0000000000000000  0.0000000000000000
  0.2464645729320054  0.7535354254423154  0.2464645773196281
  0.7535354272025785  0.7535354225457951  0.2464645744231007
  0.7535354270679946  0.2464645745576846  0.7535354226803719
  0.7535354268905721  0.2464645761405251  0.2464645758713644
  0.2464645731094279  0.7535354238594749  0.7535354241286356
  0.2464645727974215  0.2464645774542049  0.7535354255768993
 
  0.00000000E+00  0.00000000E+00  0.00000000E+00
  0.00000000E+00  0.00000000E+00  0.00000000E+00
  0.00000000E+00  0.00000000E+00  0.00000000E+00
  0.00000000E+00  0.00000000E+00  0.00000000E+00
  0.00000000E+00  0.00000000E+00  0.00000000E+00
  0.00000000E+00  0.00000000E+00  0.00000000E+00
  0.00000000E+00  0.00000000E+00  0.00000000E+00
  0.00000000E+00  0.00000000E+00  0.00000000E+00
  0.00000000E+00  0.00000000E+00  0.00000000E+00
  0.00000000E+00  0.00000000E+00  0.00000000E+00
