Na3 Au1 F6                              
   1.00000000000000     
     6.1005705785935112   -0.0000001630366680   -0.0000001152843330
     3.0502855056309106    5.2832490566697343   -0.0000000576421732
     3.0502855056309115    1.7610829645443489    4.9810949944963481
   Na   Au   F 
     3     1     6
Direct
  0.2500000000000000  0.2500000000000000  0.2500000000000000
  0.7500000000000000  0.7500000000000000  0.7500000000000000
  0.5000000000000000  0.5000000000000000  0.5000000000000000
 -0.0000000000000000  0.0000000000000000  0.0000000000000000
  0.2464645729320025  0.7535354254423183  0.2464645773196252
  0.7535354272025814  0.7535354225457980  0.2464645744230977
  0.7535354270679975  0.2464645745576816  0.7535354226803748
  0.7535354268905750  0.2464645761405222  0.2464645758713615
  0.2464645731094250  0.7535354238594778  0.7535354241286385
  0.2464645727974186  0.2464645774542020  0.7535354255769022
 
  0.00000000E+00  0.00000000E+00  0.00000000E+00
  0.00000000E+00  0.00000000E+00  0.00000000E+00
  0.00000000E+00  0.00000000E+00  0.00000000E+00
  0.00000000E+00  0.00000000E+00  0.00000000E+00
  0.00000000E+00  0.00000000E+00  0.00000000E+00
  0.00000000E+00  0.00000000E+00  0.00000000E+00
  0.00000000E+00  0.00000000E+00  0.00000000E+00
  0.00000000E+00  0.00000000E+00  0.00000000E+00
  0.00000000E+00  0.00000000E+00  0.00000000E+00
  0.00000000E+00  0.00000000E+00  0.00000000E+00
