Rb2 Ta1 Tl1 F6                          
   1.00000000000000     
     6.7890735985789767   -0.0000001319308533   -0.0000000932892006
     3.3945370829122550    5.8795102277038422   -0.0000000466446062
     3.3945370829122550    1.9598366985909907    5.5432554086637893
   Rb   Ta   Tl   F 
     2     1     1     6
Direct
  0.2500000000000000  0.2500000000000000  0.2500000000000000
  0.7500000000000000  0.7500000000000000  0.7500000000000000
  0.0000000000000000  0.0000000000000000  0.0000000000000000
  0.5000000000000000  0.5000000000000000  0.5000000000000000
  0.2146511927254195  0.7853488073768489  0.2146511924494021
  0.7853488072661179  0.7853488075590604  0.2146511926316208
  0.7853488072745805  0.2146511926231511  0.7853488075505979
  0.7853488072857431  0.2146511925235828  0.2146511925405150
  0.2146511927142569  0.7853488074764172  0.7853488074594850
  0.2146511927338821  0.2146511924409396  0.7853488073683792
 
  0.00000000E+00  0.00000000E+00  0.00000000E+00
  0.00000000E+00  0.00000000E+00  0.00000000E+00
  0.00000000E+00  0.00000000E+00  0.00000000E+00
  0.00000000E+00  0.00000000E+00  0.00000000E+00
  0.00000000E+00  0.00000000E+00  0.00000000E+00
  0.00000000E+00  0.00000000E+00  0.00000000E+00
  0.00000000E+00  0.00000000E+00  0.00000000E+00
  0.00000000E+00  0.00000000E+00  0.00000000E+00
  0.00000000E+00  0.00000000E+00  0.00000000E+00
  0.00000000E+00  0.00000000E+00  0.00000000E+00
