Rb2 Ta1 Tl1 F6                          
   1.00000000000000     
     6.7890735985789767   -0.0000001319308533   -0.0000000932892006
     3.3945370829122550    5.8795102277038422   -0.0000000466446062
     3.3945370829122550    1.9598366985909907    5.5432554086637893
   Rb   Ta   Tl   F 
     2     1     1     6
Direct
  0.2500000000000000  0.2500000000000000  0.2500000000000000
  0.7500000000000000  0.7500000000000000  0.7500000000000000
 -0.0000000000000000 -0.0000000000000000 -0.0000000000000000
  0.5000000000000000  0.5000000000000000  0.5000000000000000
  0.2146511927254191  0.7853488073768484  0.2146511924494053
  0.7853488072661146  0.7853488075590607  0.2146511926316178
  0.7853488072745809  0.2146511926231517  0.7853488075505946
  0.7853488072857419  0.2146511925235794  0.2146511925405115
  0.2146511927142579  0.7853488074764206  0.7853488074594884
  0.2146511927338852  0.2146511924409392  0.7853488073683824
 
  0.00000000E+00  0.00000000E+00  0.00000000E+00
  0.00000000E+00  0.00000000E+00  0.00000000E+00
  0.00000000E+00  0.00000000E+00  0.00000000E+00
  0.00000000E+00  0.00000000E+00  0.00000000E+00
  0.00000000E+00  0.00000000E+00  0.00000000E+00
  0.00000000E+00  0.00000000E+00  0.00000000E+00
  0.00000000E+00  0.00000000E+00  0.00000000E+00
  0.00000000E+00  0.00000000E+00  0.00000000E+00
  0.00000000E+00  0.00000000E+00  0.00000000E+00
  0.00000000E+00  0.00000000E+00  0.00000000E+00
