Cs2 Ag1 Bi1 Cl6
1.0
7.748576 -0.000000 -0.000000
3.874288 6.710464 -0.000000
3.874288 2.236821 6.326686
Cs Ag Bi Cl
2 1 1 6
direct
0.250000 0.250000 0.250000 Cs
0.750000 0.750000 0.750000 Cs
0.500000 0.500000 0.500000 Ag
0.000000 -0.000000 0.000000 Bi
0.249113 0.750887 0.249113 Cl
0.750887 0.750887 0.249113 Cl
0.750887 0.249113 0.750887 Cl
0.750887 0.249113 0.249113 Cl
0.249113 0.750887 0.750887 Cl
0.249113 0.249113 0.750887 Cl
