Cs2 Ag1 Bi1 Br6
1.0
8.123452 -0.000000 -0.000000
4.061727 7.035116 -0.000000
4.061727 2.345039 6.632771
Cs Ag Bi Br
2 1 1 6
direct
0.250000 0.250000 0.250000 Cs
0.750000 0.750000 0.750000 Cs
0.500000 0.500000 0.500000 Ag
-0.000000 0.000000 0.000000 Bi
0.250806 0.749194 0.250806 Br
0.749194 0.749194 0.250806 Br
0.749194 0.250806 0.749194 Br
0.749194 0.250806 0.250806 Br
0.250806 0.749194 0.749194 Br
0.250806 0.250806 0.749194 Br
