Cs3 Bi2 Br9
1.0
8.215988 0.000000 0.000000
-4.107994 7.115255 0.000000
0.000000 0.000000 10.069801
Cs Bi Br
3 2 9
direct
0.333333 0.666667 0.334212 Cs
0.666667 0.333333 0.665788 Cs
0.000000 0.000000 0.000000 Cs
0.333333 0.666667 0.813494 Bi
0.666667 0.333333 0.186506 Bi
0.170673 0.341345 0.664369 Br
0.658655 0.829327 0.664369 Br
0.170673 0.829327 0.664369 Br
0.829327 0.658655 0.335631 Br
0.829327 0.170673 0.335631 Br
0.500000 0.500000 0.000000 Br
0.500000 0.000000 0.000000 Br
0.000000 0.500000 0.000000 Br
0.341345 0.170673 0.335631 Br
